p cnf 2 4
c max  0
c ind 1 2 0
c p complex 2 0.9238795325112867384831361050601117312908172607421875 -0.382683432365089781779232680491986684501171112060546875 0
c p complex -2 1 0 0
2 -1 0
-2 1 0
1 -1 0
-1 1 0
